data;
set WEIGHTS := x0 x1 x2 x3 x4 x5 x6 x7 x8 x9 x10 x11 x12 x13 x14 x15 x16 x17 x18 x19 x20 x21 x22 x23;
param:  cost :=
  x0  723
  x1  563
  x2  59
  x3  257
  x4  287
  x5  539
  x6  624
  x7  654
  x8  907
  x9  486
  x10  788
  x11  940
  x12  155
  x13  349
  x14  284
  x15  647
  x16  698
  x17  7
  x18  670
  x19  648
  x20  54
  x21  46
  x22  801
  x23  96;
param cap := 6001;